543 5
10 10 10 10 10 

0 0 0 0 0 0 5 2 14 26 38 50 
0 0 0 0 0 0 1 3 
8 0 0 0 0 1 2 5 4 
5 0 0 0 0 3 2 9 7 
6 0 0 0 0 6 1 6 
3 0 0 0 0 4 1 7 
10 0 0 0 0 5 1 8 
1 0 0 0 0 7 2 12 10 
2 0 0 0 0 5 1 10 
1 0 0 0 0 3 1 11 
3 0 0 0 0 8 1 13 
6 0 0 0 0 8 1 13 
0 0 0 0 0 0 1 62 
0 0 0 0 0 0 3 15 20 24 
5 0 1 0 0 0 1 16 
7 0 8 0 0 0 1 17 
4 0 5 0 0 0 2 23 18 
3 0 7 0 0 0 1 19 
1 0 5 0 0 0 1 21 
7 0 5 0 0 0 1 21 
2 0 5 0 0 0 1 22 
3 0 4 0 0 0 1 25 
6 0 3 0 0 0 1 25 
3 0 7 0 0 0 1 25 
0 0 0 0 0 0 1 62 
0 0 0 0 0 0 1 27 
4 0 0 0 0 1 2 36 28 
3 0 0 0 0 4 2 35 29 
1 0 0 0 0 4 1 30 
10 0 0 0 0 4 1 31 
6 0 0 0 0 4 2 34 32 
7 0 0 0 0 2 1 33 
3 0 0 0 0 7 1 37 
4 0 0 0 0 9 1 37 
2 0 0 0 0 7 1 37 
2 0 0 0 0 8 1 37 
0 0 0 0 0 0 1 62 
0 0 0 0 0 0 2 39 43 
9 0 0 1 0 0 1 40 
6 0 0 7 0 0 1 41 
8 0 0 4 0 0 2 46 42 
9 0 0 4 0 0 2 48 44 
8 0 0 5 0 0 2 46 44 
4 0 0 7 0 0 1 45 
1 0 0 7 0 0 1 47 
4 0 0 4 0 0 1 47 
10 0 0 6 0 0 1 49 
4 0 0 5 0 0 1 49 
0 0 0 0 0 0 1 62 
0 0 0 0 0 0 1 51 
6 0 0 0 0 1 1 52 
8 0 0 0 0 4 1 53 
1 0 0 0 0 7 2 55 54 
10 0 0 0 0 7 2 57 56 
6 0 0 0 0 4 2 57 56 
5 0 0 0 0 7 2 59 58 
7 0 0 0 0 3 1 58 
8 0 0 0 0 7 1 60 
3 0 0 0 0 5 1 60 
10 0 0 0 0 5 1 61 
0 0 0 0 0 0 1 62 
0 0 0 0 0 0 5 63 105 147 189 201 
0 0 0 0 0 0 3 64 67 68 
4 1 1 1 2 0 1 65 
7 7 10 2 3 0 1 66 
2 4 7 3 9 0 1 69 
4 7 4 4 10 0 1 69 
8 7 5 9 3 0 1 69 
1 7 2 7 2 0 1 70 
10 6 5 3 6 0 1 71 
5 3 8 2 7 0 1 72 
5 4 8 7 5 0 2 75 73 
2 2 4 7 7 0 1 74 
5 4 4 5 3 0 1 76 
3 4 3 6 7 0 1 76 
1 4 8 6 5 0 1 77 
4 5 8 5 6 0 1 78 
6 8 3 6 5 0 1 79 
9 4 7 7 4 0 2 82 80 
5 2 4 8 7 0 3 87 85 81 
3 5 8 3 9 0 1 83 
9 5 2 7 4 0 2 87 86 
5 4 4 6 2 0 1 84 
7 6 6 7 5 0 1 86 
9 4 6 4 8 0 1 86 
7 2 4 4 4 0 2 93 88 
8 3 8 2 3 0 2 93 89 
9 5 2 5 3 0 1 89 
7 3 5 7 6 0 1 90 
6 3 3 4 6 0 2 95 91 
6 10 6 5 4 0 1 92 
10 3 5 5 5 0 1 94 
5 2 7 2 3 0 1 94 
6 10 6 6 4 0 2 100 96 
10 8 5 4 7 0 2 97 96 
10 5 5 3 3 0 1 98 
6 6 6 7 2 0 1 98 
5 5 4 6 4 0 1 99 
9 5 6 4 9 0 1 101 
5 7 3 6 4 0 1 101 
5 6 2 2 5 0 1 102 
1 6 3 7 5 0 1 103 
7 8 3 6 4 0 1 104 
0 0 0 0 0 0 1 543 
0 0 0 0 0 0 3 106 119 135 
10 1 2 2 1 0 1 107 
8 6 5 4 5 0 1 108 
1 6 6 3 5 0 1 109 
5 6 8 3 6 0 1 110 
8 6 3 8 5 0 2 127 111 
8 3 7 3 5 0 1 112 
5 9 8 4 3 0 1 113 
5 7 3 4 6 0 1 114 
1 6 10 3 3 0 2 145 115 
9 10 9 6 7 0 1 116 
8 4 1 5 5 0 1 117 
3 5 3 4 3 0 1 118 
1 5 9 4 7 0 2 144 120 
10 8 3 6 8 0 1 120 
1 6 4 10 3 0 3 143 142 121 
8 6 4 9 6 0 1 122 
3 6 7 3 4 0 1 123 
1 8 3 7 2 0 1 124 
10 3 3 10 3 0 1 125 
8 5 2 5 3 0 2 141 126 
8 3 6 4 4 0 3 140 139 128 
7 5 4 6 5 0 2 139 130 
2 3 6 3 6 0 1 129 
6 4 4 5 8 0 1 130 
8 3 3 5 4 0 1 131 
4 3 3 6 8 0 1 132 
2 4 5 5 5 0 1 133 
7 4 3 3 5 0 1 134 
1 3 8 7 7 0 1 136 
9 2 6 8 5 0 1 136 
1 4 2 2 8 0 1 137 
5 6 6 8 4 0 1 138 
6 4 5 4 9 0 1 146 
9 4 7 5 6 0 1 146 
5 7 1 4 4 0 1 146 
3 9 7 6 4 0 1 146 
8 3 9 6 5 0 1 146 
8 5 6 2 4 0 1 146 
9 4 2 5 5 0 1 146 
5 4 7 3 4 0 1 146 
0 0 0 0 0 0 1 543 
0 0 0 0 0 0 3 148 159 165 
8 1 1 1 1 0 1 149 
7 4 2 4 5 0 1 150 
5 7 4 5 5 0 1 151 
3 5 5 5 3 0 1 152 
4 1 9 5 4 0 2 162 153 
5 3 8 8 9 0 1 154 
8 6 3 6 5 0 1 155 
6 6 5 5 5 0 1 156 
8 4 7 8 6 0 1 157 
3 4 10 4 5 0 1 158 
1 8 7 4 7 0 2 187 160 
3 3 2 9 3 0 2 187 161 
7 6 6 4 7 0 1 161 
4 6 3 5 7 0 2 186 163 
2 4 4 6 5 0 2 186 163 
2 5 5 4 2 0 2 177 164 
3 9 3 3 6 0 2 185 166 
1 8 7 5 4 0 1 166 
3 5 5 6 3 0 1 167 
5 5 6 5 3 0 1 168 
9 7 2 8 2 0 1 169 
7 4 5 4 4 0 2 184 170 
2 6 8 8 8 0 3 183 182 171 
5 8 6 6 1 0 1 172 
6 10 3 3 6 0 1 173 
2 6 4 4 3 0 1 174 
8 5 5 7 7 0 1 175 
3 2 3 5 7 0 1 176 
6 3 3 5 8 0 1 178 
4 8 5 5 1 0 1 178 
2 9 3 4 4 0 1 179 
1 1 4 6 2 0 1 180 
1 2 5 3 9 0 1 181 
2 3 5 3 5 0 1 188 
6 4 7 5 4 0 1 188 
6 6 7 5 5 0 1 188 
8 3 7 3 7 0 1 188 
5 3 6 3 8 0 1 188 
7 5 6 9 5 0 1 188 
5 5 4 2 9 0 1 188 
0 0 0 0 0 0 1 543 
0 0 0 0 0 0 1 190 
10 0 1 0 0 0 2 192 191 
1 0 5 0 0 0 2 195 193 
1 0 5 0 0 0 1 193 
2 0 2 0 0 0 1 194 
6 0 6 0 0 0 1 196 
4 0 3 0 0 0 1 196 
10 0 9 0 0 0 1 197 
8 0 6 0 0 0 2 199 198 
10 0 8 0 0 0 1 200 
2 0 5 0 0 0 1 200 
0 0 0 0 0 0 5 243 275 307 339 351 
0 0 0 0 0 0 3 202 210 217 
8 2 1 4 0 1 1 203 
9 5 6 7 0 5 1 204 
6 4 8 5 0 7 1 205 
2 7 4 4 0 6 1 206 
8 4 4 6 0 7 2 216 207 
4 1 7 1 0 6 1 208 
5 6 7 4 0 3 1 209 
3 9 7 4 0 2 1 211 
3 8 4 2 0 4 1 211 
6 6 4 4 0 2 1 212 
10 4 6 6 0 9 1 213 
9 7 3 3 0 4 1 214 
6 4 3 3 0 2 2 230 215 
5 6 7 3 0 6 2 241 218 
10 2 7 4 0 4 2 241 218 
3 7 2 7 0 5 2 230 218 
4 1 5 3 0 4 2 232 219 
2 6 3 6 0 6 2 240 220 
2 3 5 6 0 10 1 221 
6 7 2 9 0 6 1 222 
4 4 7 5 0 7 1 223 
10 10 7 10 0 3 2 237 224 
3 5 7 6 0 4 3 239 238 225 
8 4 5 4 0 6 1 226 
9 7 5 2 0 2 1 227 
8 4 8 7 0 9 1 228 
4 7 6 2 0 5 1 229 
1 5 6 6 0 6 1 231 
1 5 2 6 0 6 2 237 234 
9 6 3 5 0 4 1 233 
1 4 3 6 0 4 1 233 
5 10 4 3 0 4 1 234 
10 2 3 9 0 10 1 235 
1 4 3 8 0 4 1 236 
3 1 4 7 0 6 1 242 
1 5 7 5 0 4 1 242 
10 5 7 4 0 3 1 242 
8 4 9 3 0 4 1 242 
3 7 6 4 0 7 1 242 
3 2 3 7 0 3 1 242 
0 0 0 0 0 0 1 543 
0 0 0 0 0 0 2 244 252 
2 1 0 3 0 1 1 245 
8 6 0 2 0 4 1 246 
1 7 0 8 0 3 1 247 
5 6 0 2 0 4 1 248 
9 5 0 1 0 4 2 255 249 
9 4 0 6 0 1 1 250 
9 6 0 6 0 9 1 251 
9 5 0 4 0 7 3 257 256 253 
10 6 0 2 0 5 1 253 
10 3 0 6 0 4 2 259 254 
3 3 0 8 0 5 3 262 261 258 
10 5 0 5 0 5 2 261 258 
9 6 0 4 0 6 2 261 260 
4 5 0 5 0 3 2 261 260 
9 4 0 5 0 7 1 260 
9 7 0 8 0 5 1 260 
4 8 0 9 0 7 1 263 
10 6 0 10 0 8 1 263 
3 5 0 5 0 5 1 263 
1 7 0 4 0 7 1 264 
6 5 0 3 0 4 1 265 
6 4 0 4 0 8 2 269 266 
7 6 0 4 0 7 1 267 
4 4 0 6 0 5 1 268 
3 6 0 2 0 2 1 270 
9 5 0 5 0 4 1 270 
5 5 0 6 0 7 1 271 
7 3 0 5 0 2 1 272 
4 4 0 9 0 7 1 273 
9 3 0 3 0 4 1 274 
0 0 0 0 0 0 1 543 
0 0 0 0 0 0 1 276 
5 1 0 0 1 1 2 279 277 
10 5 0 0 5 5 1 278 
1 7 0 0 7 7 2 281 280 
10 8 0 0 3 3 1 280 
8 4 0 0 6 3 1 282 
6 5 0 0 9 9 1 282 
2 9 0 0 2 7 2 286 283 
1 1 0 0 5 4 1 284 
3 6 0 0 2 5 2 288 285 
5 4 0 0 6 6 2 292 287 
10 5 0 0 5 3 2 288 287 
5 4 0 0 5 7 1 289 
8 2 0 0 7 4 1 289 
5 4 0 0 3 5 2 294 290 
10 4 0 0 4 9 1 291 
6 4 0 0 1 7 2 298 293 
10 7 0 0 5 8 3 300 298 296 
10 7 0 0 7 4 2 300 295 
2 1 0 0 7 6 2 300 296 
3 4 0 0 7 5 1 296 
7 5 0 0 8 3 1 297 
9 7 0 0 3 2 1 299 
2 4 0 0 4 1 1 299 
7 6 0 0 4 3 1 301 
4 6 0 0 5 2 1 301 
1 4 0 0 6 6 1 302 
3 8 0 0 7 3 1 303 
5 7 0 0 7 9 1 304 
4 4 0 0 4 5 1 305 
10 7 0 0 5 8 1 306 
0 0 0 0 0 0 1 543 
0 0 0 0 0 0 2 308 337 
8 1 1 0 0 1 1 309 
2 3 4 0 0 5 1 310 
5 7 6 0 0 6 1 311 
10 3 3 0 0 5 1 312 
8 7 5 0 0 6 2 331 313 
3 5 4 0 0 4 1 314 
3 4 7 0 0 7 1 315 
2 5 8 0 0 5 3 323 318 316 
7 6 5 0 0 3 2 320 317 
2 7 5 0 0 5 3 325 322 319 
6 6 5 0 0 7 2 325 324 
1 4 2 0 0 3 1 321 
7 10 3 0 0 8 1 321 
6 4 6 0 0 6 1 324 
3 3 7 0 0 2 1 324 
8 5 4 0 0 6 1 325 
2 3 4 0 0 2 1 326 
3 5 8 0 0 8 1 326 
10 6 5 0 0 2 1 327 
2 5 5 0 0 9 2 336 328 
5 7 5 0 0 3 1 329 
7 5 2 0 0 6 1 330 
4 5 7 0 0 4 1 332 
8 7 7 0 0 5 1 332 
2 4 5 0 0 4 1 333 
7 6 5 0 0 5 1 334 
10 8 5 0 0 2 1 335 
2 5 7 0 0 6 1 338 
5 1 4 0 0 8 1 338 
6 3 6 0 0 7 1 338 
0 0 0 0 0 0 1 543 
0 0 0 0 0 0 1 340 
7 0 0 0 0 1 1 341 
10 0 0 0 0 5 1 342 
2 0 0 0 0 6 2 345 343 
6 0 0 0 0 4 1 344 
8 0 0 0 0 5 2 347 346 
8 0 0 0 0 7 2 348 346 
7 0 0 0 0 7 1 349 
5 0 0 0 0 5 1 348 
10 0 0 0 0 5 1 350 
3 0 0 0 0 5 1 350 
0 0 0 0 0 0 5 383 405 427 449 471 
0 0 0 0 0 0 2 352 381 
5 1 0 0 1 1 1 353 
1 3 0 0 3 7 1 354 
3 9 0 0 6 2 1 355 
9 2 0 0 7 3 1 356 
7 7 0 0 7 7 2 380 357 
8 9 0 0 4 3 1 358 
2 1 0 0 6 4 1 359 
10 10 0 0 2 5 4 370 364 362 360 
3 4 0 0 5 5 1 361 
7 3 0 0 8 7 3 368 366 363 
3 4 0 0 7 8 2 368 367 
3 8 0 0 6 9 1 365 
6 5 0 0 6 3 1 365 
2 3 0 0 5 1 1 367 
8 4 0 0 3 5 1 367 
8 3 0 0 4 6 1 369 
7 6 0 0 5 8 1 369 
7 4 0 0 5 3 1 371 
8 6 0 0 8 5 1 371 
9 8 0 0 3 7 2 379 372 
7 3 0 0 8 3 1 373 
4 8 0 0 5 4 1 374 
7 6 0 0 4 6 1 375 
6 5 0 0 4 5 1 376 
3 1 0 0 6 6 1 377 
7 4 0 0 8 5 1 378 
9 5 0 0 5 5 1 382 
1 8 0 0 4 7 1 382 
1 4 0 0 1 6 1 382 
6 6 0 0 4 4 1 382 
0 0 0 0 0 0 1 543 
0 0 0 0 0 0 3 384 388 391 
7 0 0 1 1 0 1 385 
6 0 0 5 4 0 1 386 
8 0 0 4 3 0 1 387 
3 0 0 6 7 0 1 389 
8 0 0 5 4 0 3 396 395 392 
9 0 0 7 5 0 2 396 390 
1 0 0 10 5 0 1 392 
6 0 0 4 5 0 1 392 
9 0 0 4 6 0 1 393 
1 0 0 3 7 0 1 394 
1 0 0 3 4 0 2 403 397 
1 0 0 7 7 0 2 403 397 
6 0 0 7 6 0 1 397 
8 0 0 4 5 0 1 398 
3 0 0 7 5 0 1 399 
9 0 0 9 4 0 1 400 
10 0 0 3 5 0 1 401 
3 0 0 3 5 0 1 402 
5 0 0 5 7 0 1 404 
9 0 0 3 5 0 1 404 
0 0 0 0 0 0 1 543 
0 0 0 0 0 0 2 406 415 
4 0 1 0 2 0 1 407 
7 0 4 0 5 0 1 408 
1 0 5 0 5 0 1 409 
2 0 7 0 5 0 3 425 413 410 
4 0 6 0 4 0 1 411 
6 0 5 0 6 0 1 412 
10 0 6 0 3 0 1 414 
6 0 5 0 5 0 1 414 
10 0 8 0 3 0 2 422 416 
7 0 4 0 3 0 1 416 
6 0 7 0 4 0 1 417 
6 0 6 0 5 0 2 424 418 
6 0 3 0 5 0 1 419 
4 0 2 0 3 0 1 420 
2 0 2 0 5 0 1 421 
3 0 7 0 6 0 1 423 
6 0 6 0 6 0 1 424 
7 0 7 0 5 0 1 426 
2 0 6 0 10 0 1 426 
6 0 3 0 10 0 1 426 
0 0 0 0 0 0 1 543 
0 0 0 0 0 0 1 428 
5 0 0 2 2 0 2 442 429 
6 0 0 6 2 0 2 447 430 
3 0 0 7 8 0 1 431 
3 0 0 3 5 0 1 432 
3 0 0 4 5 0 2 446 433 
9 0 0 4 6 0 1 434 
7 0 0 5 7 0 1 435 
10 0 0 8 3 0 2 445 436 
5 0 0 3 8 0 1 437 
6 0 0 4 6 0 2 444 438 
9 0 0 3 6 0 1 439 
2 0 0 10 1 0 1 440 
2 0 0 4 3 0 1 441 
2 0 0 3 5 0 1 443 
7 0 0 3 4 0 1 444 
6 0 0 10 4 0 1 448 
5 0 0 6 5 0 1 448 
5 0 0 5 5 0 1 448 
3 0 0 4 5 0 1 448 
9 0 0 6 10 0 1 448 
0 0 0 0 0 0 1 543 
0 0 0 0 0 0 3 450 462 469 
3 1 0 0 0 1 3 468 467 451 
8 7 0 0 0 6 1 452 
9 5 0 0 0 4 1 453 
10 6 0 0 0 2 1 454 
5 6 0 0 0 8 1 455 
7 4 0 0 0 5 1 456 
6 3 0 0 0 5 2 466 457 
7 2 0 0 0 8 1 458 
9 9 0 0 0 9 1 459 
10 6 0 0 0 3 1 460 
5 6 0 0 0 2 1 461 
8 4 0 0 0 8 1 463 
1 6 0 0 0 6 2 467 465 
4 5 0 0 0 5 1 464 
7 7 0 0 0 4 1 465 
1 7 0 0 0 6 1 470 
10 2 0 0 0 5 1 470 
6 5 0 0 0 4 1 470 
6 4 0 0 0 6 1 470 
8 5 0 0 0 3 1 470 
0 0 0 0 0 0 1 543 
0 0 0 0 0 0 1 472 
2 0 1 0 0 0 2 481 473 
6 0 8 0 0 0 1 474 
1 0 5 0 0 0 2 480 475 
7 0 3 0 0 0 2 479 476 
8 0 2 0 0 0 1 477 
3 0 7 0 0 0 1 478 
3 0 9 0 0 0 1 482 
10 0 4 0 0 0 1 482 
7 0 6 0 0 0 1 482 
10 0 5 0 0 0 1 482 
0 0 0 0 0 0 5 483 495 507 519 531 
0 0 0 0 0 0 2 484 487 
8 0 0 0 0 1 2 486 485 
8 0 0 0 0 6 1 488 
2 0 0 0 0 7 1 488 
9 0 0 0 0 6 1 488 
5 0 0 0 0 6 1 489 
8 0 0 0 0 4 1 490 
2 0 0 0 0 5 2 493 491 
8 0 0 0 0 7 1 492 
6 0 0 0 0 3 1 494 
9 0 0 0 0 5 1 494 
0 0 0 0 0 0 1 543 
0 0 0 0 0 0 1 496 
1 0 0 0 0 1 2 505 497 
5 0 0 0 0 5 1 498 
2 0 0 0 0 7 1 499 
2 0 0 0 0 8 2 504 500 
1 0 0 0 0 2 2 503 501 
2 0 0 0 0 4 1 502 
9 0 0 0 0 5 1 506 
1 0 0 0 0 7 1 506 
8 0 0 0 0 2 1 506 
1 0 0 0 0 9 1 506 
0 0 0 0 0 0 1 543 
0 0 0 0 0 0 2 508 512 
3 0 0 0 1 0 2 517 509 
4 0 0 0 3 0 1 510 
8 0 0 0 7 0 1 511 
4 0 0 0 8 0 2 516 513 
2 0 0 0 8 0 3 517 516 515 
4 0 0 0 3 0 1 514 
5 0 0 0 3 0 1 515 
4 0 0 0 3 0 1 518 
7 0 0 0 9 0 1 518 
3 0 0 0 5 0 1 518 
0 0 0 0 0 0 1 543 
0 0 0 0 0 0 3 520 527 529 
2 0 0 0 0 1 1 521 
5 0 0 0 0 5 2 524 522 
3 0 0 0 0 9 1 523 
3 0 0 0 0 6 1 525 
8 0 0 0 0 6 1 525 
9 0 0 0 0 9 1 526 
9 0 0 0 0 4 1 528 
1 0 0 0 0 4 1 528 
7 0 0 0 0 3 1 530 
4 0 0 0 0 3 1 530 
0 0 0 0 0 0 1 543 
0 0 0 0 0 0 3 532 533 540 
10 0 0 0 1 0 2 538 534 
8 0 0 0 6 0 2 538 535 
6 0 0 0 2 0 1 535 
4 0 0 0 7 0 1 536 
2 0 0 0 5 0 1 537 
3 0 0 0 4 0 1 539 
3 0 0 0 7 0 1 539 
4 0 0 0 4 0 1 541 
5 0 0 0 7 0 1 541 
9 0 0 0 7 0 1 542 
0 0 0 0 0 0 1 543 
0 0 0 0 0 0 0 
